p tw 1023 2043
1 2
1 484
2 136
2 200
2 484
136 247
136 60
136 200
136 767
247 358
247 658
247 60
247 909
358 469
358 314
358 658
358 981
469 580
469 148
469 314
469 1016
580 691
580 70
580 148
580 13
691 802
691 37
691 70
691 22
802 913
802 3
802 37
802 27
913 3
913 29
3 48
37 48
37 59
37 81
48 59
59 92
70 81
70 114
70 159
81 92
81 103
81 114
92 103
103 125
114 125
114 137
114 170
125 137
137 181
148 159
148 236
148 325
159 170
159 203
159 236
170 181
170 192
170 203
181 192
192 214
203 214
203 225
203 248
214 225
225 259
236 248
236 281
236 336
248 259
248 270
248 281
259 270
270 292
281 292
281 303
281 347
292 303
303 359
314 325
314 492
314 669
325 336
325 414
325 492
336 347
336 381
336 414
347 359
347 370
347 381
359 370
370 392
381 392
381 403
381 425
392 403
403 436
414 425
414 458
414 503
425 436
425 447
425 458
436 447
447 470
458 470
458 481
458 514
470 481
481 525
492 503
492 581
492 680
503 514
503 547
503 581
514 525
514 536
514 547
525 536
536 558
547 558
547 569
547 592
558 569
569 603
581 592
581 625
581 692
592 603
592 614
592 625
603 614
614 636
625 636
625 647
625 703
636 647
647 714
658 669
658 1013
658 61
669 680
669 847
669 1013
680 692
680 769
680 847
692 703
692 736
692 769
703 714
703 725
703 736
714 725
725 747
736 747
736 758
736 780
747 758
758 791
769 780
769 814
769 858
780 791
780 803
780 814
791 803
803 825
814 825
814 836
814 869
825 836
836 880
847 858
847 936
847 4
858 869
858 902
858 936
869 880
869 891
869 902
880 891
891 914
902 914
902 925
902 947
914 925
925 958
936 947
936 980
936 15
947 958
947 969
947 980
958 969
969 991
980 991
980 1002
980 26
991 1002
1002 30
1013 4
1013 43
1013 62
4 15
4 35
4 43
15 26
15 32
15 35
26 30
26 31
26 32
30 31
31 33
32 33
32 34
32 36
33 34
34 38
35 36
35 40
35 44
36 38
36 39
36 40
38 39
39 41
40 41
40 42
40 45
41 42
42 46
43 44
43 52
43 63
44 45
44 49
44 52
45 46
45 47
45 49
46 47
47 50
49 50
49 51
49 53
50 51
51 54
52 53
52 56
52 64
53 54
53 55
53 56
54 55
55 57
56 57
56 58
56 65
57 58
58 66
60 61
60 130
60 201
61 62
61 96
61 130
62 63
62 79
62 96
63 64
63 72
63 79
64 65
64 68
64 72
65 66
65 67
65 68
66 67
67 69
68 69
68 71
68 73
69 71
71 74
72 73
72 76
72 80
73 74
73 75
73 76
74 75
75 77
76 77
76 78
76 82
77 78
78 83
79 80
79 88
79 97
80 82
80 85
80 88
82 83
82 84
82 85
83 84
84 86
85 86
85 87
85 89
86 87
87 90
88 89
88 93
88 98
89 90
89 91
89 93
90 91
91 94
93 94
93 95
93 99
94 95
95 100
96 97
96 113
96 131
97 98
97 106
97 113
98 99
98 102
98 106
99 100
99 101
99 102
100 101
101 104
102 104
102 105
102 107
104 105
105 108
106 107
106 110
106 115
107 108
107 109
107 110
108 109
109 111
110 111
110 112
110 116
111 112
112 117
113 115
113 122
113 132
115 116
115 119
115 122
116 117
116 118
116 119
117 118
118 120
119 120
119 121
119 123
120 121
121 124
122 123
122 127
122 133
123 124
123 126
123 127
124 126
126 128
127 128
127 129
127 134
128 129
129 135
130 131
130 166
130 202
131 132
131 150
131 166
132 133
132 142
132 150
133 134
133 139
133 142
134 135
134 138
134 139
135 138
138 140
139 140
139 141
139 143
140 141
141 144
142 143
142 146
142 151
143 144
143 145
143 146
144 145
145 147
146 147
146 149
146 152
147 149
149 153
150 151
150 158
150 167
151 152
151 155
151 158
152 153
152 154
152 155
153 154
154 156
155 156
155 157
155 160
156 157
157 161
158 160
158 163
158 168
160 161
160 162
160 163
161 162
162 164
163 164
163 165
163 169
164 165
165 171
166 167
166 184
166 204
167 168
167 176
167 184
168 169
168 173
168 176
169 171
169 172
169 173
171 172
172 174
173 174
173 175
173 177
174 175
175 178
176 177
176 180
176 185
177 178
177 179
177 180
178 179
179 182
180 182
180 183
180 186
182 183
183 187
184 185
184 193
184 205
185 186
185 189
185 193
186 187
186 188
186 189
187 188
188 190
189 190
189 191
189 194
190 191
191 195
193 194
193 197
193 206
194 195
194 196
194 197
195 196
196 198
197 198
197 199
197 207
198 199
199 208
200 201
200 342
200 485
201 202
201 273
201 342
202 204
202 238
202 273
204 205
204 221
204 238
205 206
205 213
205 221
206 207
206 210
206 213
207 208
207 209
207 210
208 209
209 211
210 211
210 212
210 215
211 212
212 216
213 215
213 218
213 222
215 216
215 217
215 218
216 217
217 219
218 219
218 220
218 223
219 220
220 224
221 222
221 230
221 239
222 223
222 227
222 230
223 224
223 226
223 227
224 226
226 228
227 228
227 229
227 231
228 229
229 232
230 231
230 234
230 240
231 232
231 233
231 234
232 233
233 235
234 235
234 237
234 241
235 237
237 242
238 239
238 256
238 274
239 240
239 249
239 256
240 241
240 244
240 249
241 242
241 243
241 244
242 243
243 245
244 245
244 246
244 250
245 246
246 251
249 250
249 253
249 257
250 251
250 252
250 253
251 252
252 254
253 254
253 255
253 258
254 255
255 260
256 257
256 265
256 275
257 258
257 262
257 265
258 260
258 261
258 262
260 261
261 263
262 263
262 264
262 266
263 264
264 267
265 266
265 269
265 276
266 267
266 268
266 269
267 268
268 271
269 271
269 272
269 277
271 272
272 278
273 274
273 308
273 343
274 275
274 291
274 308
275 276
275 284
275 291
276 277
276 280
276 284
277 278
277 279
277 280
278 279
279 282
280 282
280 283
280 285
282 283
283 286
284 285
284 288
284 293
285 286
285 287
285 288
286 287
287 289
288 289
288 290
288 294
289 290
290 295
291 293
291 300
291 309
293 294
293 297
293 300
294 295
294 296
294 297
295 296
296 298
297 298
297 299
297 301
298 299
299 302
300 301
300 305
300 310
301 302
301 304
301 305
302 304
304 306
305 306
305 307
305 311
306 307
307 312
308 309
308 326
308 344
309 310
309 318
309 326
310 311
310 315
310 318
311 312
311 313
311 315
312 313
313 316
315 316
315 317
315 319
316 317
317 320
318 319
318 322
318 327
319 320
319 321
319 322
320 321
321 323
322 323
322 324
322 328
323 324
324 329
326 327
326 334
326 345
327 328
327 331
327 334
328 329
328 330
328 331
329 330
330 332
331 332
331 333
331 335
332 333
333 337
334 335
334 339
334 346
335 337
335 338
335 339
337 338
338 340
339 340
339 341
339 348
340 341
341 349
342 343
342 413
342 486
343 344
343 379
343 413
344 345
344 363
344 379
345 346
345 354
345 363
346 348
346 351
346 354
348 349
348 350
348 351
349 350
350 352
351 352
351 353
351 355
352 353
353 356
354 355
354 360
354 364
355 356
355 357
355 360
356 357
357 361
360 361
360 362
360 365
361 362
362 366
363 364
363 372
363 380
364 365
364 368
364 372
365 366
365 367
365 368
366 367
367 369
368 369
368 371
368 373
369 371
371 374
372 373
372 376
372 382
373 374
373 375
373 376
374 375
375 377
376 377
376 378
376 383
377 378
378 384
379 380
379 397
379 415
380 382
380 389
380 397
382 383
382 386
382 389
383 384
383 385
383 386
384 385
385 387
386 387
386 388
386 390
387 388
388 391
389 390
389 394
389 398
390 391
390 393
390 394
391 393
393 395
394 395
394 396
394 399
395 396
396 400
397 398
397 406
397 416
398 399
398 402
398 406
399 400
399 401
399 402
400 401
401 404
402 404
402 405
402 407
404 405
405 408
406 407
406 410
406 417
407 408
407 409
407 410
408 409
409 411
410 411
410 412
410 418
411 412
412 419
413 415
413 449
413 487
415 416
415 432
415 449
416 417
416 424
416 432
417 418
417 421
417 424
418 419
418 420
418 421
419 420
420 422
421 422
421 423
421 426
422 423
423 427
424 426
424 429
424 433
426 427
426 428
426 429
427 428
428 430
429 430
429 431
429 434
430 431
431 435
432 433
432 441
432 450
433 434
433 438
433 441
434 435
434 437
434 438
435 437
437 439
438 439
438 440
438 442
439 440
440 443
441 442
441 445
441 451
442 443
442 444
442 445
443 444
444 446
445 446
445 448
445 452
446 448
448 453
449 450
449 466
449 488
450 451
450 459
450 466
451 452
451 455
451 459
452 453
452 454
452 455
453 454
454 456
455 456
455 457
455 460
456 457
457 461
459 460
459 463
459 467
460 461
460 462
460 463
461 462
462 464
463 464
463 465
463 468
464 465
465 471
466 467
466 476
466 489
467 468
467 473
467 476
468 471
468 472
468 473
471 472
472 474
473 474
473 475
473 477
474 475
475 478
476 477
476 480
476 490
477 478
477 479
477 480
478 479
479 482
480 482
480 483
480 491
482 483
483 493
484 485
484 767
485 486
485 627
485 767
486 487
486 556
486 627
487 488
487 522
487 556
488 489
488 506
488 522
489 490
489 498
489 506
490 491
490 495
490 498
491 493
491 494
491 495
493 494
494 496
495 496
495 497
495 499
496 497
497 500
498 499
498 502
498 507
499 500
499 501
499 502
500 501
501 504
502 504
502 505
502 508
504 505
505 509
506 507
506 515
506 523
507 508
507 511
507 515
508 509
508 510
508 511
509 510
510 512
511 512
511 513
511 516
512 513
513 517
515 516
515 519
515 524
516 517
516 518
516 519
517 518
518 520
519 520
519 521
519 526
520 521
521 527
522 523
522 540
522 557
523 524
523 532
523 540
524 526
524 529
524 532
526 527
526 528
526 529
527 528
528 530
529 530
529 531
529 533
530 531
531 534
532 533
532 537
532 541
533 534
533 535
533 537
534 535
535 538
537 538
537 539
537 542
538 539
539 543
540 541
540 549
540 559
541 542
541 545
541 549
542 543
542 544
542 545
543 544
544 546
545 546
545 548
545 550
546 548
548 551
549 550
549 553
549 560
550 551
550 552
550 553
551 552
552 554
553 554
553 555
553 561
554 555
555 562
556 557
556 593
556 628
557 559
557 575
557 593
559 560
559 567
559 575
560 561
560 564
560 567
561 562
561 563
561 564
562 563
563 565
564 565
564 566
564 568
565 566
566 570
567 568
567 572
567 576
568 570
568 571
568 572
570 571
571 573
572 573
572 574
572 577
573 574
574 578
575 576
575 585
575 594
576 577
576 582
576 585
577 578
577 579
577 582
578 579
579 583
582 583
582 584
582 586
583 584
584 587
585 586
585 589
585 595
586 587
586 588
586 589
587 588
588 590
589 590
589 591
589 596
590 591
591 597
593 594
593 610
593 629
594 595
594 602
594 610
595 596
595 599
595 602
596 597
596 598
596 599
597 598
598 600
599 600
599 601
599 604
600 601
601 605
602 604
602 607
602 611
604 605
604 606
604 607
605 606
606 608
607 608
607 609
607 612
608 609
609 613
610 611
610 619
610 630
611 612
611 616
611 619
612 613
612 615
612 616
613 615
615 617
616 617
616 618
616 620
617 618
618 621
619 620
619 623
619 631
620 621
620 622
620 623
621 622
622 624
623 624
623 626
623 632
624 626
626 633
627 628
627 698
627 768
628 629
628 663
628 698
629 630
629 646
629 663
630 631
630 639
630 646
631 632
631 635
631 639
632 633
632 634
632 635
633 634
634 637
635 637
635 638
635 640
637 638
638 641
639 640
639 643
639 648
640 641
640 642
640 643
641 642
642 644
643 644
643 645
643 649
644 645
645 650
646 648
646 655
646 664
648 649
648 652
648 655
649 650
649 651
649 652
650 651
651 653
652 653
652 654
652 656
653 654
654 657
655 656
655 660
655 665
656 657
656 659
656 660
657 659
659 661
660 661
660 662
660 666
661 662
662 667
663 664
663 681
663 699
664 665
664 673
664 681
665 666
665 670
665 673
666 667
666 668
666 670
667 668
668 671
670 671
670 672
670 674
671 672
672 675
673 674
673 677
673 682
674 675
674 676
674 677
675 676
676 678
677 678
677 679
677 683
678 679
679 684
681 682
681 689
681 700
682 683
682 686
682 689
683 684
683 685
683 686
684 685
685 687
686 687
686 688
686 690
687 688
688 693
689 690
689 695
689 701
690 693
690 694
690 695
693 694
694 696
695 696
695 697
695 702
696 697
697 704
698 699
698 733
698 770
699 700
699 717
699 733
700 701
700 709
700 717
701 702
701 706
701 709
702 704
702 705
702 706
704 705
705 707
706 707
706 708
706 710
707 708
708 711
709 710
709 713
709 718
710 711
710 712
710 713
711 712
712 715
713 715
713 716
713 719
715 716
716 720
717 718
717 726
717 734
718 719
718 722
718 726
719 720
719 721
719 722
720 721
721 723
722 723
722 724
722 727
723 724
724 728
726 727
726 730
726 735
727 728
727 729
727 730
728 729
729 731
730 731
730 732
730 737
731 732
732 738
733 734
733 751
733 771
734 735
734 743
734 751
735 737
735 740
735 743
737 738
737 739
737 740
738 739
739 741
740 741
740 742
740 744
741 742
742 745
743 744
743 748
743 752
744 745
744 746
744 748
745 746
746 749
748 749
748 750
748 753
749 750
750 754
751 752
751 760
751 772
752 753
752 756
752 760
753 754
753 755
753 756
754 755
755 757
756 757
756 759
756 761
757 759
759 762
760 761
760 764
760 773
761 762
761 763
761 764
762 763
763 765
764 765
764 766
764 774
765 766
766 775
767 768
767 909
768 770
768 840
768 909
770 771
770 806
770 840
771 772
771 788
771 806
772 773
772 781
772 788
773 774
773 777
773 781
774 775
774 776
774 777
775 776
776 778
777 778
777 779
777 782
778 779
779 783
781 782
781 785
781 789
782 783
782 784
782 785
783 784
784 786
785 786
785 787
785 790
786 787
787 792
788 789
788 797
788 807
789 790
789 794
789 797
790 792
790 793
790 794
792 793
793 795
794 795
794 796
794 798
795 796
796 799
797 798
797 801
797 808
798 799
798 800
798 801
799 800
800 804
801 804
801 805
801 809
804 805
805 810
806 807
806 823
806 841
807 808
807 816
807 823
808 809
808 812
808 816
809 810
809 811
809 812
810 811
811 813
812 813
812 815
812 817
813 815
815 818
816 817
816 820
816 824
817 818
817 819
817 820
818 819
819 821
820 821
820 822
820 826
821 822
822 827
823 824
823 832
823 842
824 826
824 829
824 832
826 827
826 828
826 829
827 828
828 830
829 830
829 831
829 833
830 831
831 834
832 833
832 837
832 843
833 834
833 835
833 837
834 835
835 838
837 838
837 839
837 844
838 839
839 845
840 841
840 875
840 910
841 842
841 859
841 875
842 843
842 851
842 859
843 844
843 848
843 851
844 845
844 846
844 848
845 846
846 849
848 849
848 850
848 852
849 850
850 853
851 852
851 855
851 860
852 853
852 854
852 855
853 854
854 856
855 856
855 857
855 861
856 857
857 862
859 860
859 867
859 876
860 861
860 864
860 867
861 862
861 863
861 864
862 863
863 865
864 865
864 866
864 868
865 866
866 870
867 868
867 872
867 877
868 870
868 871
868 872
870 871
871 873
872 873
872 874
872 878
873 874
874 879
875 876
875 893
875 911
876 877
876 885
876 893
877 878
877 882
877 885
878 879
878 881
878 882
879 881
881 883
882 883
882 884
882 886
883 884
884 887
885 886
885 889
885 894
886 887
886 888
886 889
887 888
888 890
889 890
889 892
889 895
890 892
892 896
893 894
893 901
893 912
894 895
894 898
894 901
895 896
895 897
895 898
896 897
897 899
898 899
898 900
898 903
899 900
900 904
901 903
901 906
901 915
903 904
903 905
903 906
904 905
905 907
906 907
906 908
906 916
907 908
908 917
909 910
909 981
910 911
910 946
910 981
911 912
911 930
911 946
912 915
912 922
912 930
915 916
915 919
915 922
916 917
916 918
916 919
917 918
918 920
919 920
919 921
919 923
920 921
921 924
922 923
922 927
922 931
923 924
923 926
923 927
924 926
926 928
927 928
927 929
927 932
928 929
929 933
930 931
930 939
930 948
931 932
931 935
931 939
932 933
932 934
932 935
933 934
934 937
935 937
935 938
935 940
937 938
938 941
939 940
939 943
939 949
940 941
940 942
940 943
941 942
942 944
943 944
943 945
943 950
944 945
945 951
946 948
946 964
946 982
948 949
948 956
948 964
949 950
949 953
949 956
950 951
950 952
950 953
951 952
952 954
953 954
953 955
953 957
954 955
955 959
956 957
956 961
956 965
957 959
957 960
957 961
959 960
960 962
961 962
961 963
961 966
962 963
963 967
964 965
964 973
964 983
965 966
965 970
965 973
966 967
966 968
966 970
967 968
968 971
970 971
970 972
970 974
971 972
972 975
973 974
973 977
973 984
974 975
974 976
974 977
975 976
976 978
977 978
977 979
977 985
978 979
979 986
981 982
981 1016
982 983
982 999
982 1016
983 984
983 992
983 999
984 985
984 988
984 992
985 986
985 987
985 988
986 987
987 989
988 989
988 990
988 993
989 990
990 994
992 993
992 996
992 1000
993 994
993 995
993 996
994 995
995 997
996 997
996 998
996 1001
997 998
998 1003
999 1000
999 1008
999 1017
1000 1001
1000 1005
1000 1008
1001 1003
1001 1004
1001 1005
1003 1004
1004 1006
1005 1006
1005 1007
1005 1009
1006 1007
1007 1010
1008 1009
1008 1012
1008 1018
1009 1010
1009 1011
1009 1012
1010 1011
1011 1014
1012 1014
1012 1015
1012 1019
1014 1015
1015 1020
1016 1017
1016 13
1017 1018
1017 6
1017 13
1018 1019
1018 1022
1018 6
1019 1020
1019 1021
1019 1022
1020 1021
1021 1023
1022 1023
1022 5
1022 7
1023 5
5 8
6 7
6 10
6 14
7 8
7 9
7 10
8 9
9 11
10 11
10 12
10 16
11 12
12 17
13 14
13 22
14 16
14 19
14 22
16 17
16 18
16 19
17 18
18 20
19 20
19 21
19 23
20 21
21 24
22 23
22 27
23 24
23 25
23 27
24 25
25 28
27 28
27 29
28 29
